# Solution for model r5_t36_m8_5
# Finished Task: 32 / 36
# Makespan: 926.0, Total Distance: 1793.0, Total Time: 7.6197
# R O S F
0 0 23 0.0 0.0
1 1 17 0.0 0.0
2 2 14 0.0 0.0
3 3 18 0.0 0.0
4 4 7 0.0 0.0
5 0 -1 896.0 926.0
6 2 -1 859.0 897.0
7 4 11 94.0 121.0
8 4 32 523.0 546.0
9 4 15 382.0 414.0
10 1 -1 844.0 866.0
11 4 21 202.0 226.0
12 -1 -1 -1.0 -1.0
13 4 38 724.0 747.0
14 2 33 422.0 449.0
15 4 8 491.0 515.0
16 -1 -1 -1.0 -1.0
17 1 29 481.0 501.0
18 3 25 237.0 275.0
19 3 37 694.0 714.0
20 3 30 468.0 494.0
21 4 27 258.0 286.0
22 -1 -1 -1.0 -1.0
23 0 39 382.0 407.0
24 4 40 614.0 634.0
25 3 20 407.0 436.0
26 4 13 695.0 724.0
27 4 9 314.0 351.0
28 -1 -1 -1.0 -1.0
29 1 10 716.0 754.0
30 3 31 502.0 522.0
31 3 35 590.0 610.0
32 4 24 575.0 600.0
33 2 36 579.0 609.0
34 3 -1 873.0 896.0
35 3 19 669.0 694.0
36 2 6 791.0 815.0
37 3 34 752.0 777.0
38 4 -1 850.0 878.0
39 0 5 735.0 767.0
40 4 26 663.0 683.0
